424 5
10 10 10 10 10 

0 0 0 0 0 0 5 2 14 26 38 50 
0 0 0 0 0 0 2 3 9 
9 1 0 0 0 0 2 6 4 
9 2 0 0 0 0 1 5 
1 2 0 0 0 0 2 11 7 
3 4 0 0 0 0 2 11 10 
7 1 0 0 0 0 1 8 
3 3 0 0 0 0 1 10 
8 3 0 0 0 0 1 10 
4 4 0 0 0 0 1 12 
7 2 0 0 0 0 1 12 
4 3 0 0 0 0 1 13 
0 0 0 0 0 0 1 62 
0 0 0 0 0 0 2 15 17 
9 0 0 0 0 1 1 16 
8 0 0 0 0 3 1 18 
10 0 0 0 0 1 1 18 
7 0 0 0 0 2 2 20 19 
9 0 0 0 0 2 2 24 21 
8 0 0 0 0 2 2 24 22 
8 0 0 0 0 5 1 22 
1 0 0 0 0 1 1 23 
3 0 0 0 0 5 1 25 
4 0 0 0 0 3 1 25 
0 0 0 0 0 0 1 62 
0 0 0 0 0 0 3 27 28 33 
10 0 1 0 0 0 1 29 
2 0 6 0 0 0 1 29 
9 0 2 0 0 0 2 36 30 
10 0 3 0 0 0 1 31 
7 0 1 0 0 0 1 32 
5 0 1 0 0 0 1 34 
8 0 1 0 0 0 1 34 
8 0 3 0 0 0 1 35 
7 0 2 0 0 0 1 37 
3 0 5 0 0 0 1 37 
0 0 0 0 0 0 1 62 
0 0 0 0 0 0 2 39 42 
10 0 0 0 1 0 1 40 
2 0 0 0 3 0 1 41 
8 0 0 0 4 0 2 44 43 
6 0 0 0 2 0 2 44 43 
2 0 0 0 1 0 2 48 45 
4 0 0 0 2 0 2 48 47 
8 0 0 0 3 0 1 46 
7 0 0 0 4 0 1 47 
8 0 0 0 3 0 1 49 
3 0 0 0 2 0 1 49 
0 0 0 0 0 0 1 62 
0 0 0 0 0 0 2 51 54 
3 0 0 1 0 0 1 52 
4 0 0 1 0 0 2 60 53 
3 0 0 3 0 0 2 58 55 
6 0 0 2 0 0 2 58 56 
1 0 0 3 0 0 1 56 
8 0 0 2 0 0 1 57 
6 0 0 5 0 0 1 59 
4 0 0 3 0 0 1 59 
10 0 0 4 0 0 1 61 
6 0 0 1 0 0 1 61 
0 0 0 0 0 0 1 62 
0 0 0 0 0 0 5 63 75 87 99 111 
0 0 0 0 0 0 1 64 
5 1 0 0 0 0 3 68 66 65 
2 1 0 0 0 0 1 67 
2 1 0 0 0 0 2 71 70 
8 3 0 0 0 0 1 69 
4 2 0 0 0 0 1 69 
8 5 0 0 0 0 1 70 
10 2 0 0 0 0 1 72 
5 5 0 0 0 0 1 72 
10 4 0 0 0 0 1 73 
8 1 0 0 0 0 1 74 
0 0 0 0 0 0 1 123 
0 0 0 0 0 0 2 76 83 
3 0 0 0 1 0 2 85 77 
2 0 0 0 3 0 1 78 
9 0 0 0 1 0 2 82 79 
1 0 0 0 1 0 1 80 
10 0 0 0 3 0 1 81 
5 0 0 0 1 0 1 84 
5 0 0 0 3 0 1 84 
9 0 0 0 4 0 1 84 
6 0 0 0 3 0 1 86 
7 0 0 0 5 0 1 86 
0 0 0 0 0 0 1 123 
0 0 0 0 0 0 1 88 
2 0 0 0 0 1 3 92 90 89 
9 0 0 0 0 2 1 91 
9 0 0 0 0 3 1 91 
2 0 0 0 0 2 2 95 93 
4 0 0 0 0 2 2 95 93 
10 0 0 0 0 2 1 94 
2 0 0 0 0 4 1 96 
3 0 0 0 0 4 1 96 
6 0 0 0 0 2 1 97 
4 0 0 0 0 3 1 98 
0 0 0 0 0 0 1 123 
0 0 0 0 0 0 2 100 103 
9 0 1 0 0 0 1 101 
4 0 2 0 0 0 1 102 
8 0 1 0 0 0 2 105 104 
9 0 3 0 0 0 2 105 104 
7 0 2 0 0 0 2 109 106 
5 0 4 0 0 0 2 109 107 
8 0 2 0 0 0 1 107 
8 0 1 0 0 0 1 108 
10 0 5 0 0 0 1 110 
6 0 4 0 0 0 1 110 
0 0 0 0 0 0 1 123 
0 0 0 0 0 0 2 112 115 
8 0 0 1 0 0 2 121 113 
6 0 0 4 0 0 1 114 
2 0 0 3 0 0 1 116 
1 0 0 3 0 0 1 116 
8 0 0 3 0 0 2 120 117 
10 0 0 2 0 0 1 118 
2 0 0 2 0 0 1 119 
10 0 0 3 0 0 1 122 
5 0 0 2 0 0 1 122 
3 0 0 2 0 0 1 122 
0 0 0 0 0 0 1 123 
0 0 0 0 0 0 5 124 156 188 220 252 
0 0 0 0 0 0 2 125 129 
10 1 1 0 1 0 1 126 
9 1 1 0 3 0 1 127 
2 1 5 0 3 0 1 128 
2 2 4 0 2 0 1 130 
1 4 2 0 2 0 1 130 
4 3 1 0 2 0 2 135 131 
3 2 1 0 5 0 1 132 
7 2 1 0 2 0 1 133 
10 1 1 0 3 0 3 138 137 134 
2 1 2 0 3 0 2 140 136 
5 4 2 0 4 0 1 136 
5 4 2 0 1 0 3 143 142 139 
2 1 5 0 2 0 2 142 139 
3 2 1 0 1 0 2 142 139 
7 4 4 0 1 0 1 141 
1 3 1 0 2 0 1 141 
4 2 4 0 1 0 1 144 
1 3 1 0 1 0 1 144 
2 1 4 0 1 0 1 144 
2 2 2 0 3 0 1 145 
6 2 1 0 2 0 1 146 
9 3 3 0 2 0 2 150 147 
7 5 1 0 4 0 1 148 
10 2 7 0 4 0 1 149 
6 1 2 0 3 0 1 151 
6 2 2 0 5 0 1 151 
2 4 4 0 4 0 1 152 
2 3 2 0 3 0 1 153 
4 1 4 0 2 0 1 154 
8 8 4 0 3 0 1 155 
0 0 0 0 0 0 1 424 
0 0 0 0 0 0 2 157 186 
9 0 0 1 1 1 1 158 
3 0 0 2 1 3 1 159 
1 0 0 1 1 1 1 160 
10 0 0 3 1 1 1 161 
6 0 0 4 4 1 2 185 162 
4 0 0 1 1 1 1 163 
4 0 0 2 3 2 2 184 164 
3 0 0 2 7 3 4 183 182 177 165 
1 0 0 2 4 1 2 173 166 
3 0 0 3 2 7 1 167 
8 0 0 4 2 1 1 168 
4 0 0 4 5 4 1 169 
10 0 0 2 2 3 2 181 170 
5 0 0 5 3 1 1 171 
9 0 0 2 1 1 1 172 
9 0 0 6 2 4 1 174 
10 0 0 2 3 3 1 174 
10 0 0 1 3 4 1 175 
10 0 0 2 2 2 1 176 
1 0 0 2 3 1 1 178 
8 0 0 2 2 3 1 178 
10 0 0 2 6 2 1 179 
3 0 0 2 3 1 1 180 
10 0 0 3 1 5 1 187 
5 0 0 3 3 3 1 187 
6 0 0 2 3 4 1 187 
3 0 0 2 1 4 1 187 
8 0 0 2 2 2 1 187 
8 0 0 5 1 4 1 187 
2 0 0 1 2 2 1 187 
0 0 0 0 0 0 1 424 
0 0 0 0 0 0 6 189 214 215 216 217 218 
3 0 1 1 0 1 1 190 
2 0 1 7 0 2 1 191 
8 0 3 2 0 3 3 213 212 192 
5 0 4 1 0 4 1 193 
3 0 1 2 0 3 1 194 
2 0 2 3 0 3 1 195 
1 0 1 5 0 3 1 196 
3 0 4 2 0 1 1 197 
3 0 2 2 0 3 1 198 
9 0 1 2 0 1 2 211 199 
1 0 3 4 0 3 1 200 
6 0 3 2 0 2 1 201 
1 0 1 1 0 2 1 202 
8 0 5 3 0 4 1 203 
3 0 1 2 0 1 1 204 
1 0 3 2 0 3 1 205 
6 0 2 2 0 1 1 206 
10 0 2 2 0 3 1 207 
6 0 1 3 0 3 1 208 
9 0 3 2 0 3 1 209 
10 0 1 4 0 2 1 210 
6 0 2 3 0 6 1 219 
10 0 2 1 0 2 1 219 
10 0 3 1 0 3 1 219 
6 0 3 1 0 4 1 219 
1 0 6 2 0 2 1 219 
1 0 4 1 0 1 1 219 
5 0 4 6 0 1 1 219 
10 0 1 3 0 3 1 219 
4 0 5 3 0 2 1 219 
0 0 0 0 0 0 1 424 
0 0 0 0 0 0 6 221 246 247 248 249 250 
4 0 1 1 0 1 1 222 
7 0 2 5 0 2 1 223 
6 0 4 1 0 5 2 245 224 
9 0 3 3 0 3 2 244 225 
6 0 3 3 0 1 1 226 
3 0 2 3 0 4 1 227 
1 0 2 4 0 1 1 228 
7 0 4 3 0 2 1 229 
1 0 2 1 0 1 1 230 
7 0 4 2 0 2 2 243 231 
2 0 2 3 0 1 1 232 
5 0 3 3 0 2 1 233 
5 0 1 3 0 4 1 234 
2 0 5 1 0 2 1 235 
7 0 3 2 0 2 1 236 
7 0 3 4 0 5 1 237 
8 0 2 3 0 2 1 238 
10 0 5 3 0 3 1 239 
4 0 1 3 0 1 1 240 
6 0 1 1 0 2 1 241 
7 0 2 1 0 2 1 242 
3 0 3 3 0 2 1 251 
9 0 3 2 0 2 1 251 
2 0 1 2 0 2 1 251 
2 0 3 4 0 2 1 251 
10 0 3 4 0 1 1 251 
6 0 1 1 0 2 1 251 
9 0 1 1 0 9 1 251 
2 0 2 3 0 5 1 251 
5 0 3 2 0 2 1 251 
0 0 0 0 0 0 1 424 
0 0 0 0 0 0 3 253 255 258 
8 0 0 0 1 0 2 262 254 
4 0 0 0 4 0 1 256 
6 0 0 0 2 0 2 262 259 
3 0 0 0 2 0 1 257 
7 0 0 0 2 0 1 259 
10 0 0 0 2 0 1 259 
6 0 0 0 4 0 1 260 
10 0 0 0 2 0 1 261 
4 0 0 0 3 0 1 263 
3 0 0 0 3 0 1 263 
0 0 0 0 0 0 5 264 286 308 330 342 
0 0 0 0 0 0 3 265 268 269 
1 1 1 0 0 0 1 266 
2 4 2 0 0 0 1 267 
3 2 1 0 0 0 3 284 279 270 
4 2 2 0 0 0 2 279 270 
6 2 4 0 0 0 3 284 279 272 
10 5 3 0 0 0 1 271 
8 2 3 0 0 0 1 272 
2 1 3 0 0 0 1 273 
7 2 3 0 0 0 1 274 
1 1 3 0 0 0 1 275 
2 6 2 0 0 0 2 283 276 
9 4 1 0 0 0 1 277 
7 3 2 0 0 0 1 278 
5 3 2 0 0 0 1 280 
10 2 5 0 0 0 1 280 
8 1 3 0 0 0 1 281 
7 3 1 0 0 0 1 282 
6 3 6 0 0 0 1 285 
4 1 2 0 0 0 1 285 
2 2 1 0 0 0 1 285 
0 0 0 0 0 0 1 424 
0 0 0 0 0 0 3 287 291 306 
5 0 1 0 1 0 2 305 288 
9 0 2 0 3 0 1 289 
10 0 1 0 3 0 2 295 290 
3 0 2 0 4 0 1 292 
1 0 2 0 2 0 2 295 294 
1 0 1 0 4 0 1 293 
8 0 1 0 4 0 1 294 
5 0 1 0 1 0 1 296 
6 0 3 0 1 0 1 296 
10 0 5 0 4 0 1 297 
5 0 4 0 3 0 1 298 
8 0 4 0 2 0 2 304 299 
7 0 3 0 2 0 1 300 
8 0 3 0 2 0 1 301 
4 0 4 0 3 0 1 302 
9 0 3 0 2 0 1 303 
5 0 2 0 3 0 1 307 
1 0 2 0 3 0 1 307 
2 0 3 0 2 0 1 307 
6 0 3 0 1 0 1 307 
0 0 0 0 0 0 1 424 
0 0 0 0 0 0 3 309 327 328 
10 1 0 1 0 0 2 319 310 
3 1 0 2 0 0 2 326 311 
8 3 0 5 0 0 1 312 
9 6 0 3 0 0 1 313 
8 5 0 1 0 0 1 314 
4 2 0 4 0 0 2 325 315 
1 2 0 2 0 0 1 316 
1 1 0 1 0 0 1 317 
9 3 0 2 0 0 1 318 
1 6 0 6 0 0 1 320 
5 2 0 2 0 0 1 320 
10 1 0 2 0 0 1 321 
1 1 0 3 0 0 1 322 
3 1 0 3 0 0 1 323 
1 4 0 2 0 0 1 324 
10 3 0 1 0 0 1 329 
8 4 0 1 0 0 1 329 
3 1 0 3 0 0 1 329 
1 1 0 2 0 0 1 329 
4 2 0 4 0 0 1 329 
0 0 0 0 0 0 1 424 
0 0 0 0 0 0 2 331 334 
10 0 0 0 1 0 2 337 332 
10 0 0 0 1 0 1 333 
6 0 0 0 4 0 1 335 
10 0 0 0 4 0 1 335 
4 0 0 0 2 0 2 340 336 
10 0 0 0 2 0 1 338 
8 0 0 0 2 0 1 338 
5 0 0 0 5 0 1 339 
4 0 0 0 1 0 1 341 
1 0 0 0 3 0 1 341 
0 0 0 0 0 0 5 364 376 388 400 412 
0 0 0 0 0 0 3 343 349 352 
3 0 1 0 0 1 1 344 
2 0 2 0 0 2 1 345 
1 0 2 0 0 5 1 346 
9 0 4 0 0 3 1 347 
2 0 5 0 0 2 2 359 348 
5 0 3 0 0 2 1 350 
7 0 1 0 0 2 1 350 
4 0 2 0 0 2 1 351 
1 0 2 0 0 2 2 362 353 
8 0 4 0 0 4 2 357 354 
4 0 3 0 0 5 1 354 
9 0 3 0 0 4 1 355 
6 0 5 0 0 3 1 356 
7 0 1 0 0 1 1 358 
5 0 1 0 0 1 1 358 
1 0 2 0 0 2 1 360 
5 0 3 0 0 1 1 360 
3 0 2 0 0 2 1 361 
9 0 1 0 0 3 1 363 
8 0 3 0 0 3 1 363 
0 0 0 0 0 0 1 424 
0 0 0 0 0 0 2 365 366 
3 0 0 1 0 0 3 369 368 367 
9 0 0 2 0 0 1 367 
9 0 0 3 0 0 1 370 
5 0 0 2 0 0 1 370 
8 0 0 3 0 0 1 370 
8 0 0 4 0 0 1 371 
9 0 0 4 0 0 1 372 
8 0 0 3 0 0 1 373 
3 0 0 1 0 0 1 374 
9 0 0 2 0 0 1 375 
0 0 0 0 0 0 1 424 
0 0 0 0 0 0 1 377 
2 0 0 1 0 0 2 386 378 
2 0 0 2 0 0 1 379 
10 0 0 3 0 0 1 380 
5 0 0 2 0 0 2 385 381 
1 0 0 3 0 0 2 384 382 
6 0 0 4 0 0 1 383 
6 0 0 5 0 0 1 387 
6 0 0 2 0 0 1 387 
10 0 0 1 0 0 1 387 
5 0 0 2 0 0 1 387 
0 0 0 0 0 0 1 424 
0 0 0 0 0 0 3 389 391 398 
6 0 0 1 0 0 2 397 390 
2 0 0 1 0 0 1 392 
10 0 0 3 0 0 2 397 394 
9 0 0 2 0 0 1 393 
4 0 0 3 0 0 1 394 
3 0 0 2 0 0 1 395 
2 0 0 1 0 0 1 396 
7 0 0 3 0 0 1 399 
3 0 0 6 0 0 1 399 
7 0 0 3 0 0 1 399 
0 0 0 0 0 0 1 424 
0 0 0 0 0 0 2 401 407 
9 0 0 0 1 0 1 402 
3 0 0 0 3 0 1 403 
8 0 0 0 2 0 3 410 409 404 
2 0 0 0 4 0 1 405 
1 0 0 0 4 0 1 406 
3 0 0 0 1 0 1 408 
7 0 0 0 4 0 1 408 
9 0 0 0 1 0 1 411 
3 0 0 0 1 0 1 411 
2 0 0 0 4 0 1 411 
0 0 0 0 0 0 1 424 
0 0 0 0 0 0 3 413 418 422 
10 0 0 0 0 1 1 414 
3 0 0 0 0 5 1 415 
8 0 0 0 0 2 1 416 
1 0 0 0 0 2 2 421 417 
3 0 0 0 0 3 1 419 
9 0 0 0 0 5 1 419 
3 0 0 0 0 3 1 420 
4 0 0 0 0 2 1 423 
9 0 0 0 0 1 1 423 
9 0 0 0 0 1 1 423 
0 0 0 0 0 0 1 424 
0 0 0 0 0 0 0 
